NAME : B-n78-k10
COMMENT : (Augerat et al, Min no of trucks: 10, Best value: 1266)
TYPE : CVRP
DIMENSION : 78
EDGE_WEIGHT_TYPE : EUC_2D 
CAPACITY : 100
NODE_COORD_SECTION 
1 46 12
2 51 4
3 52 30
4 80 70
5 18 90
6 59 39
7 23 59
8 77 48
9 82 30
10 18 82
11 11 41
12 7 9
13 88 33
14 23 88
15 0 76
16 85 34
17 17 46
18 52 10
19 13 45
20 19 85
21 86 77
22 54 6
23 83 32
24 15 10
25 53 5
26 14 42
27 13 10
28 57 32
29 20 85
30 65 46
31 61 42
DEMAND_SECTION 
1 0 
2 14 
3 17 
4 17 
5 16 
6 19 
7 17 
8 5 
9 12 
10 4 
11 2 
12 2 
13 26 
14 2 
15 7 
16 18 
17 6 
18 6 
19 18 
20 2 
21 14 
22 5 
23 9 
24 4 
25 3 
26 15 
27 4 
28 23 
29 7 
30 21 
31 4 
DEPOT_SECTION 
1  
-1  
EOF 
